7 100 456
0 47 5
1 1 19 20 78
2 97 35 14 22
3 23 79 5 73
4 77 87 11 44
5 3 9 22 66
6 5 27 25 54
7 41 53 2 9
8 51 87 18 34
9 67 73 10 28
10 89 45 26 28
11 71 99 14 57
12 11 1 22 41
13 85 85 9 36
14 57 11 11 32
15 57 85 18 53
16 71 33 24 74
17 61 13 15 40
18 39 15 23 59
19 13 59 16 1
20 43 99 14 16
21 87 73 8 28
22 11 37 5 62
23 21 11 12 40
24 77 81 8 69
25 3 63 16 33
26 47 95 12 71
27 53 75 15 70
28 73 55 9 7
29 81 71 2 73
30 89 75 10 64
31 11 9 2 54
32 27 37 3 17
33 95 59 20 58
34 63 63 3 40
35 37 21 13 14
36 33 47 25 71
37 23 63 23 49
38 13 55 8 39
39 47 93 16 74
40 45 43 9 1
41 83 7 14 56
42 69 91 4 12
43 13 11 13 70
44 37 15 7 60
45 53 59 16 11
46 97 83 18 24
47 75 31 16 48
